(set-logic QF_S)
(declare-fun var_0xINPUT_15426 () String)
(declare-fun T3_2 () String)
(declare-fun T4_2 () String)
(declare-fun T3_6 () String)
(declare-fun T0_2 () String)
(declare-fun I0_6 () String)
(declare-fun T2_2 () String)
(declare-fun T4_6 () String)
(declare-fun I0_2 () String)
(declare-fun T2_6 () String)
(declare-fun T0_6 () String)
(declare-fun T5_6 () String)
(declare-fun T_3 () String)
(declare-fun T5_2 () String)
(declare-fun T1_6 () String)
(declare-fun T1_2 () String)
(assert (and (= var_0xINPUT_15426 (concat T0_2 T1_2)) (= (len T0_2) 0) (= T1_2 (concat T2_2 T3_2)) (= T2_2 (concat T4_2 T5_2)) (= T5_2 "GoogleAdServingTest=") (not (in T4_2 /GoogleAdServingTest=/)) (= var_0xINPUT_15426 (concat T0_6 T1_6)) (= T1_6 (concat T2_6 T3_6)) (= T2_6 (concat T4_6 T5_6)) (= T5_6 ";") (not (in T4_6 /;/)) (>= (len T_3) 20) (>= (len T_3) 20)))
(check-sat var_0xINPUT_15426)